mixintcount/benchmarks/random_v2l/8_8_5011.in
32 10
#	x1	x2	x3	x4	x5	x6	x7	x8;		0 = Real; 1 = Integer
	1	1	1	1	1	1	1	1
1	-7	-4	-9	1	9	-9	-8	1	-4316
1	2	2	8	-5	-8	5	-4	-7	2529
1	-9	-9	-7	2	3	9	-5	10	4085
1	-7	-10	-10	1	-7	-4	0	3	-3835
1	0	3	6	-2	-8	-5	-6	-3	-2114
1	9	2	1	-5	3	1	-4	-8	3190
1	-6	-3	10	-1	1	10	-1	-9	-1071
1	3	2	2	8	-9	-6	1	-3	-2913
1	7	1	0	-8	-2	-9	1	1	1849
1	-9	7	4	-9	9	-9	-10	-3	-4073
1	10	4	1	9	-3	-10	0	-8	-531
1	3	4	-5	8	-2	4	-3	-2	4720
1	-3	9	2	9	9	-2	3	10	477
1	4	8	2	-7	5	-6	2	4	-326
1	1	-7	3	0	6	-6	3	1	1762
1	-3	9	10	-2	-7	7	9	-9	2600
1	1	0	0	0	0	0	0	0	5011
1	-1	0	0	0	0	0	0	0	5011
1	0	1	0	0	0	0	0	0	5011
1	0	-1	0	0	0	0	0	0	5011
1	0	0	1	0	0	0	0	0	5011
1	0	0	-1	0	0	0	0	0	5011
1	0	0	0	1	0	0	0	0	5011
1	0	0	0	-1	0	0	0	0	5011
1	0	0	0	0	1	0	0	0	5011
1	0	0	0	0	-1	0	0	0	5011
1	0	0	0	0	0	1	0	0	5011
1	0	0	0	0	0	-1	0	0	5011
1	0	0	0	0	0	0	1	0	5011
1	0	0	0	0	0	0	-1	0	5011
1	0	0	0	0	0	0	0	1	5011
1	0	0	0	0	0	0	0	-1	5011
